container_size = [45, 33, 15];
Box = B(1..6);
no_boxes = [27, 25, 9, 19, 13, 7];
box_size =
[|       Length: Width: Height: 
 | B(1):      3,     3,      3
 | B(2):      4,     4,      2
 | B(3):     10,     3,      2
 | B(4):      5,     5,      2
 | B(5):      7,     2,      2
 | B(6):      8,     3,      2
 |];
